Minimize
  - 25 y_0 - 15 y_1 - 16 y_2 - 21 y_4 - 19 y_5 - 24 y_6 - 4 y_7 - 24 y_8
   - 29 y_9 + 43 x_0_1 + 63 x_0_2 + 101 x_0_3 + 52 x_0_4 + 52 x_0_5
   + 50 x_0_6 + 85 x_0_7 + 30 x_0_9 + 45 x_1_2 + 59 x_1_3 + 31 x_1_5
   + 42 x_1_7 + 62 x_2_3 + 25 x_2_4 + 56 x_2_7 + 90 x_2_9 + 86 x_3_4
   + 74 x_3_5 + 95 x_3_6 + 18 x_3_7 + 96 x_3_8 + 82 x_4_5 + 91 x_4_6
   + 111 x_4_8 + 56 x_5_7 + 48 x_5_9 + 77 x_6_7 + 24 x_6_8 + 35 x_6_9
   + 80 x_7_8 + 57 x_8_9 + 57 x_8_9 + 57 x_8_9 + 57 x_8_9 + 57 x_8_9
   + 57 x_8_9 + 57 x_8_9 + 57 x_8_9 + 57 x_8_9 + 57 x_8_9 + 57 x_8_9
   + 57 x_8_9 + 57 x_8_9 + 57 x_8_9 + 57 x_8_9 + 57 x_8_9 + 57 x_8_9
   + 57 x_8_9 + 57 x_8_9 + 57 x_8_9 + 57 x_8_9 + 57 x_8_9 + 57 x_8_9
   + 57 x_8_9 + 57 x_8_9 + 57 x_8_9 + 57 x_8_9 + 57 x_8_9 + 57 x_8_9
   + 57 x_8_9 + 57 x_8_9 + 57 x_8_9 + 57 x_8_9 + 57 x_8_9 + 57 x_8_9
   + 57 x_8_9 + 57 x_8_9 + 57 x_8_9 + 57 x_8_9 + 57 x_8_9 + 57 x_8_9
   + 57 x_8_9 + 57 x_8_9 + 57 x_8_9 + 57 x_8_9 + 57 x_8_9 + 57 x_8_9
   + 57 x_8_9 + 57 x_8_9 + 57 x_8_9 + 57 x_8_9 + 57 x_8_9 + 57 x_8_9
   + 57 x_8_9 + 57 x_8_9 + 57 x_8_9 + 57 x_8_9 + 57 x_8_9 + 57 x_8_9
   + 57 x_8_9 + 57 x_8_9 + 57 x_8_9 + 57 x_8_9 + 57 x_8_9 + 57 x_8_9
   + 57 x_8_9 + 57 x_8_9 + 57 x_8_9 + 57 x_8_9 + 57 x_8_9 + 57 x_8_9
   + 57 x_8_9 + 57 x_8_9 + 57 x_8_9 + 57 x_8_9 + 57 x_8_9 + 57 x_8_9
   + 57 x_8_9 + 57 x_8_9 + 57 x_8_9 + 57 x_8_9 + 57 x_8_9 + 57 x_8_9
   + 57 x_8_9 + 57 x_8_9 + 57 x_8_9 + 57 x_8_9 + 57 x_8_9 + 57 x_8_9
   + 57 x_8_9 + 57 x_8_9 + 57 x_8_9 + 57 x_8_9 + 57 x_8_9 + 57 x_8_9
   + 57 x_8_9 + 57 x_8_9 + 57 x_8_9 + 57 x_8_9 + 57 x_8_9 + 57 x_8_9
   + 57 x_8_9 + 57 x_8_9 + 57 x_8_9 + 57 x_8_9 + 57 x_8_9 + 57 x_8_9
   + 57 x_8_9 + 57 x_8_9 + 57 x_8_9 + 57 x_8_9 + 57 x_8_9 + 57 x_8_9
   + 57 x_8_9 + 57 x_8_9 + 57 x_8_9 + 57 x_8_9 + 57 x_8_9 + 57 x_8_9
   + 57 x_8_9 + 57 x_8_9 + 57 x_8_9 + 57 x_8_9 + 57 x_8_9 + 57 x_8_9
   + 57 x_8_9 + 57 x_8_9 + 57 x_8_9 + 57 x_8_9 + 57 x_8_9 + 57 x_8_9
   + 57 x_8_9 + 57 x_8_9 + 57 x_8_9 + 57 x_8_9 + 57 x_8_9 + 57 x_8_9
   + 57 x_8_9 + 57 x_8_9 + 57 x_8_9 + 57 x_8_9 + 57 x_8_9 + 57 x_8_9
   + 57 x_8_9 + 57 x_8_9 + 57 x_8_9 + 57 x_8_9 + 57 x_8_9 + 57 x_8_9
   + 57 x_8_9 + 57 x_8_9 + 57 x_8_9 + 57 x_8_9 + 57 x_8_9 + 57 x_8_9
   + 57 x_8_9 + 57 x_8_9 + 57 x_8_9 + 57 x_8_9 + 57 x_8_9 + 57 x_8_9
   + 57 x_8_9 + 57 x_8_9 + 57 x_8_9 + 57 x_8_9 + 57 x_8_9 + 57 x_8_9
   + 57 x_8_9 + 57 x_8_9 + 57 x_8_9 + 57 x_8_9 + 57 x_8_9 + 57 x_8_9
   + 57 x_8_9 + 57 x_8_9 + 57 x_8_9 + 57 x_8_9 + 57 x_8_9 + 57 x_8_9
   + 57 x_8_9 + 57 x_8_9 + 57 x_8_9 + 57 x_8_9 + 57 x_8_9 + 57 x_8_9
   + 57 x_8_9 + 57 x_8_9 + 57 x_8_9 + 57 x_8_9 + 57 x_8_9 + 57 x_8_9
   + 57 x_8_9 + 57 x_8_9 + 57 x_8_9 + 57 x_8_9 + 57 x_8_9 + 57 x_8_9
   + 57 x_8_9 + 57 x_8_9 + 57 x_8_9 + 57 x_8_9 + 57 x_8_9 + 57 x_8_9
   + 57 x_8_9 + 57 x_8_9 + 57 x_8_9 + 57 x_8_9 + 57 x_8_9 + 57 x_8_9
   + 57 x_8_9 + 57 x_8_9 + 57 x_8_9 + 57 x_8_9 + 57 x_8_9 + 57 x_8_9
   + 57 x_8_9 + 57 x_8_9 + 57 x_8_9 + 57 x_8_9 + 57 x_8_9 + 57 x_8_9
   + 57 x_8_9 + 57 x_8_9 + 57 x_8_9 + 57 x_8_9 + 57 x_8_9 + 57 x_8_9
   + 57 x_8_9 + 57 x_8_9 + 57 x_8_9 + 57 x_8_9 + 57 x_8_9 + 57 x_8_9
   + 57 x_8_9 + 57 x_8_9 + 57 x_8_9 + 57 x_8_9 + 57 x_8_9 + 57 x_8_9
   + 57 x_8_9 + 57 x_8_9 + 57 x_8_9 + 57 x_8_9 + 57 x_8_9 + 57 x_8_9
   + 57 x_8_9 + 57 x_8_9 + 57 x_8_9 + 57 x_8_9 + 57 x_8_9 + 57 x_8_9
   + 57 x_8_9 + 57 x_8_9 + 57 x_8_9 + 57 x_8_9 + 57 x_8_9 + 57 x_8_9
   + 57 x_8_9 + 57 x_8_9 + 57 x_8_9 + 57 x_8_9 + 57 x_8_9 + 57 x_8_9
   + 57 x_8_9 + 57 x_8_9 + 57 x_8_9 + 57 x_8_9 + 57 x_8_9 + 57 x_8_9
   + 57 x_8_9 + 57 x_8_9 + 57 x_8_9 + 57 x_8_9 + 57 x_8_9 + 57 x_8_9
   + 57 x_8_9 + 57 x_8_9 + 57 x_8_9 + 57 x_8_9 + 57 x_8_9 + 57 x_8_9
   + 177 Constant
Subject To
 c_0: y_0 = 1
 c_1_0: y_0 >= 1
 c_1_1: y_1 >= 1
 c_1_2: y_2 >= 1
 c_1_3: y_3 >= 1
 c_1_4: y_4 >= 1
 c_1_5: y_5 >= 1
 c_1_6: y_6 >= 1
 c_1_7: y_7 >= 1
 c_1_8: y_8 >= 1
 c_1_9: y_9 >= 1
 c_2_0: - 2 y_0 + x_0_1 + x_0_2 + x_0_3 + x_0_4 + x_0_5 + x_0_6 + x_0_7
   + x_0_9 = 0
 c_2_1: - 2 y_1 + x_0_1 + x_1_2 + x_1_3 + x_1_5 + x_1_7 = 0
 c_2_2: - 2 y_2 + x_0_2 + x_1_2 + x_2_3 + x_2_4 + x_2_7 + x_2_9 = 0
 c_2_3: - 2 y_3 + x_0_3 + x_1_3 + x_2_3 + x_3_4 + x_3_5 + x_3_6 + x_3_7
   + x_3_8 = 0
 c_2_4: - 2 y_4 + x_0_4 + x_2_4 + x_3_4 + x_4_5 + x_4_6 + x_4_8 = 0
 c_2_5: - 2 y_5 + x_0_5 + x_1_5 + x_3_5 + x_4_5 + x_5_7 + x_5_9 = 0
 c_2_6: - 2 y_6 + x_0_6 + x_3_6 + x_4_6 + x_6_7 + x_6_8 + x_6_9 = 0
 c_2_7: - 2 y_7 + x_0_7 + x_1_7 + x_2_7 + x_3_7 + x_5_7 + x_6_7 + x_7_8
   = 0
 c_2_8: - 2 y_8 + x_3_8 + x_4_8 + x_6_8 + x_7_8 + 281 x_8_9 = 0
 c_2_9: - 2 y_9 + x_0_9 + x_2_9 + x_5_9 + x_6_9 + 281 x_8_9 = 0
Bounds
 Constant = 1
Binaries
 y_0 y_1 y_2 y_3 y_4 y_5 y_6 y_7 y_8 y_9 x_0_1 x_0_2 x_0_3 x_0_4 x_0_5
 x_0_6 x_0_7 x_0_9 x_1_2 x_1_3 x_1_5 x_1_7 x_2_3 x_2_4 x_2_7 x_2_9 x_3_4
 x_3_5 x_3_6 x_3_7 x_3_8 x_4_5 x_4_6 x_4_8 x_5_7 x_5_9 x_6_7 x_6_8 x_6_9
 x_7_8 x_8_9 x_8_9 x_8_9 x_8_9 x_8_9 x_8_9 x_8_9 x_8_9 x_8_9 x_8_9 x_8_9
 x_8_9 x_8_9 x_8_9 x_8_9 x_8_9 x_8_9 x_8_9 x_8_9 x_8_9 x_8_9 x_8_9 x_8_9
 x_8_9 x_8_9 x_8_9 x_8_9 x_8_9 x_8_9 x_8_9 x_8_9 x_8_9 x_8_9 x_8_9 x_8_9
 x_8_9 x_8_9 x_8_9 x_8_9 x_8_9 x_8_9 x_8_9 x_8_9 x_8_9 x_8_9 x_8_9 x_8_9
 x_8_9 x_8_9 x_8_9 x_8_9 x_8_9 x_8_9 x_8_9 x_8_9 x_8_9 x_8_9 x_8_9 x_8_9
 x_8_9 x_8_9 x_8_9 x_8_9 x_8_9 x_8_9 x_8_9 x_8_9 x_8_9 x_8_9 x_8_9 x_8_9
 x_8_9 x_8_9 x_8_9 x_8_9 x_8_9 x_8_9 x_8_9 x_8_9 x_8_9 x_8_9 x_8_9 x_8_9
 x_8_9 x_8_9 x_8_9 x_8_9 x_8_9 x_8_9 x_8_9 x_8_9 x_8_9 x_8_9 x_8_9 x_8_9
 x_8_9 x_8_9 x_8_9 x_8_9 x_8_9 x_8_9 x_8_9 x_8_9 x_8_9 x_8_9 x_8_9 x_8_9
 x_8_9 x_8_9 x_8_9 x_8_9 x_8_9 x_8_9 x_8_9 x_8_9 x_8_9 x_8_9 x_8_9 x_8_9
 x_8_9 x_8_9 x_8_9 x_8_9 x_8_9 x_8_9 x_8_9 x_8_9 x_8_9 x_8_9 x_8_9 x_8_9
 x_8_9 x_8_9 x_8_9 x_8_9 x_8_9 x_8_9 x_8_9 x_8_9 x_8_9 x_8_9 x_8_9 x_8_9
 x_8_9 x_8_9 x_8_9 x_8_9 x_8_9 x_8_9 x_8_9 x_8_9 x_8_9 x_8_9 x_8_9 x_8_9
 x_8_9 x_8_9 x_8_9 x_8_9 x_8_9 x_8_9 x_8_9 x_8_9 x_8_9 x_8_9 x_8_9 x_8_9
 x_8_9 x_8_9 x_8_9 x_8_9 x_8_9 x_8_9 x_8_9 x_8_9 x_8_9 x_8_9 x_8_9 x_8_9
 x_8_9 x_8_9 x_8_9 x_8_9 x_8_9 x_8_9 x_8_9 x_8_9 x_8_9 x_8_9 x_8_9 x_8_9
 x_8_9 x_8_9 x_8_9 x_8_9 x_8_9 x_8_9 x_8_9 x_8_9 x_8_9 x_8_9 x_8_9 x_8_9
 x_8_9 x_8_9 x_8_9 x_8_9 x_8_9 x_8_9 x_8_9 x_8_9 x_8_9 x_8_9 x_8_9 x_8_9
 x_8_9 x_8_9 x_8_9 x_8_9 x_8_9 x_8_9 x_8_9 x_8_9 x_8_9 x_8_9 x_8_9 x_8_9
 x_8_9 x_8_9 x_8_9 x_8_9 x_8_9 x_8_9 x_8_9 x_8_9 x_8_9 x_8_9 x_8_9 x_8_9
 x_8_9 x_8_9 x_8_9 x_8_9 x_8_9 x_8_9 x_8_9 x_8_9 x_8_9 x_8_9 x_8_9 x_8_9
 x_8_9 x_8_9 x_8_9 x_8_9 x_8_9 x_8_9 x_8_9 x_8_9 x_8_9 x_8_9 x_8_9 x_8_9
 x_8_9 x_8_9 x_8_9 x_8_9 x_8_9 x_8_9 x_8_9 x_8_9 x_8_9 x_8_9 x_8_9 x_8_9
 x_8_9 x_8_9 x_8_9 x_8_9 x_8_9 x_8_9
End
